n_res = 4;
rc = [ 0, 0, 0, 0 ];
n_tasks = 30;
d = [ 1, 3, 6, 8, 1, 10, 5, 10, 2, 3, 3, 1, 10, 3, 2, 10, 1, 6, 8, 2, 4, 9, 2, 4, 1, 7, 10, 9, 4, 6 ];
rr = [| 0, 0, 0, 0, 0, 0, 0, 0, 0, 0, 0, 0, 0, 0, 0, 0, 0, 0, 0, 0, 0, 0, 0, 0, 0, 0, 0, 0, 0, 0
      | 0, 0, 0, 0, 0, 0, 0, 0, 0, 0, 0, 0, 0, 0, 0, 0, 0, 0, 0, 0, 0, 0, 0, 0, 0, 0, 0, 0, 0, 0
      | 0, 0, 0, 0, 0, 0, 0, 0, 0, 0, 0, 0, 0, 0, 0, 0, 0, 0, 0, 0, 0, 0, 0, 0, 0, 0, 0, 0, 0, 0
      | 0, 0, 0, 0, 0, 0, 0, 0, 0, 0, 0, 0, 0, 0, 0, 0, 0, 0, 0, 0, 0, 0, 0, 0, 0, 0, 0, 0, 0, 0 |];
suc = [ { 11, 13, 26 },
       { 4, 17, 18 },
       { 6, 7, 9 },
       { 5, 6, 8 },
       { 11, 12, 15 },
       { 20, 22, 29 },
       { 10, 17, 19 },
       { 9, 11, 19 },
       { 20, 24, 26 },
       { 13, 14, 30 },
       { 16, 20, 21 },
       { 19, 22, 26 },
       { 15, 18, 25 },
       { 15, 16, 18 },
       { 23 },
       { 23, 25 },
       { 24 },
       { 21, 22 },
       { 21, 24 },
       { 27 },
       { 27, 29 },
       { 23 },
       { 28 },
       { 25, 30 },
       { 28, 29 },
       { 27, 30 },
       { 28 },
       {  },
       {  },
       {  } ];
